20	13000	3000	1200
3430	822	673
4158	760	784
4434	793	614
3003	673	678
2289	823	700
3039	806	631
3879	574	745
3781	822	667
2240	509	505
4384	862	587
4232	793	608
3407	871	537
4238	778	521
3361	671	621
4652	573	544
4321	507	526
4815	802	687
3887	548	688
4845	690	796
4263	838	550
